\ENCODING=ISO-8859-1
\Problem name: MDHFVRP

Minimize
 obj: X(0,1,0,4) + X(0,1,1,3) + 2 X(0,2,0,4) + 2 X(0,2,1,3) + X(0,3,0,4)
      + X(0,3,1,3) + 2 X(0,4,0,4) + 2 X(0,4,1,3) + X(1,0,0,4) + X(1,0,1,3)
      + X(1,2,0,4) + X(1,2,1,3) + 2 X(1,3,0,4) + 2 X(1,3,1,3) + X(1,4,0,4)
      + X(1,4,1,3) + 2 X(2,0,0,4) + 2 X(2,0,1,3) + X(2,1,0,4) + X(2,1,1,3)
      + 2 X(2,3,0,4) + 2 X(2,3,1,3) + 2 X(2,4,0,4) + 2 X(2,4,1,3)
      + 3 X(3,0,0,4) + 3 X(3,0,1,3) + X(3,1,0,4) + X(3,1,1,3) + 2 X(3,2,0,4)
      + 2 X(3,2,1,3) + 4 X(4,0,0,4) + 4 X(4,0,1,3) + 5 X(4,1,0,4)
      + 5 X(4,1,1,3) + X(4,2,0,4) + X(4,2,1,3)
Subject To
 c2_0:       X(1,0,0,4) + X(1,0,1,3) + X(2,0,0,4) + X(2,0,1,3) + X(3,0,0,4)
             + X(3,0,1,3) + X(4,0,0,4) + X(4,0,1,3)  = 1
 c2_1:       X(0,1,0,4) + X(0,1,1,3) + X(2,1,0,4) + X(2,1,1,3) + X(3,1,0,4)
             + X(3,1,1,3) + X(4,1,0,4) + X(4,1,1,3)  = 1
 c2_2:       X(0,2,0,4) + X(0,2,1,3) + X(1,2,0,4) + X(1,2,1,3) + X(3,2,0,4)
             + X(3,2,1,3) + X(4,2,0,4) + X(4,2,1,3)  = 1
 c3_0:       X(0,1,0,4) + X(0,1,1,3) + X(0,2,0,4) + X(0,2,1,3) + X(0,3,0,4)
             + X(0,3,1,3) + X(0,4,0,4) + X(0,4,1,3)  = 1
 c3_1:       X(1,0,0,4) + X(1,0,1,3) + X(1,2,0,4) + X(1,2,1,3) + X(1,3,0,4)
             + X(1,3,1,3) + X(1,4,0,4) + X(1,4,1,3)  = 1
 c3_2:       X(2,0,0,4) + X(2,0,1,3) + X(2,1,0,4) + X(2,1,1,3) + X(2,3,0,4)
             + X(2,3,1,3) + X(2,4,0,4) + X(2,4,1,3)  = 1
 c4_0_0_3:    = 0
 c4_0_0_4:   - X(0,1,0,4) - X(0,2,0,4) - X(0,3,0,4) - X(0,4,0,4) + X(1,0,0,4)
             + X(2,0,0,4) + X(3,0,0,4) + X(4,0,0,4)  = 0
 c4_0_1_3:    = 0
 c4_0_1_4:   X(0,1,0,4) - X(1,0,0,4) - X(1,2,0,4) - X(1,3,0,4) - X(1,4,0,4)
             + X(2,1,0,4) + X(3,1,0,4) + X(4,1,0,4)  = 0
 c4_0_2_3:    = 0
 c4_0_2_4:   X(0,2,0,4) + X(1,2,0,4) - X(2,0,0,4) - X(2,1,0,4) - X(2,3,0,4)
             - X(2,4,0,4) + X(3,2,0,4) + X(4,2,0,4)  = 0
 c4_0_3_3:    = 0
 c4_0_3_4:   X(0,3,0,4) + X(1,3,0,4) + X(2,3,0,4) - X(3,0,0,4) - X(3,1,0,4)
             - X(3,2,0,4)  = 0
 c4_0_4_3:    = 0
 c4_0_4_4:   X(0,4,0,4) + X(1,4,0,4) + X(2,4,0,4) - X(4,0,0,4) - X(4,1,0,4)
             - X(4,2,0,4)  = 0
 c4_1_0_3:   - X(0,1,1,3) - X(0,2,1,3) - X(0,3,1,3) - X(0,4,1,3) + X(1,0,1,3)
             + X(2,0,1,3) + X(3,0,1,3) + X(4,0,1,3)  = 0
 c4_1_0_4:    = 0
 c4_1_1_3:   X(0,1,1,3) - X(1,0,1,3) - X(1,2,1,3) - X(1,3,1,3) - X(1,4,1,3)
             + X(2,1,1,3) + X(3,1,1,3) + X(4,1,1,3)  = 0
 c4_1_1_4:    = 0
 c4_1_2_3:   X(0,2,1,3) + X(1,2,1,3) - X(2,0,1,3) - X(2,1,1,3) - X(2,3,1,3)
             - X(2,4,1,3) + X(3,2,1,3) + X(4,2,1,3)  = 0
 c4_1_2_4:    = 0
 c4_1_3_3:   X(0,3,1,3) + X(1,3,1,3) + X(2,3,1,3) - X(3,0,1,3) - X(3,1,1,3)
             - X(3,2,1,3)  = 0
 c4_1_3_4:    = 0
 c4_1_4_3:   X(0,4,1,3) + X(1,4,1,3) + X(2,4,1,3) - X(4,0,1,3) - X(4,1,1,3)
             - X(4,2,1,3)  = 0
 c4_1_4_4:    = 0
 c5:         f(3,0) + f(3,1) + f(3,2) + f(4,0) + f(4,1) + f(4,2)  = 14
 c6_0:       - f(0,1) - f(0,2) - f(0,3) - f(0,4) + f(1,0) + f(2,0) + f(3,0)
             + f(4,0)  = 2
 c6_1:       f(0,1) - f(1,0) - f(1,2) - f(1,3) - f(1,4) + f(2,1) + f(3,1)
             + f(4,1)  = 3
 c6_2:       f(0,2) + f(1,2) - f(2,0) - f(2,1) - f(2,3) - f(2,4) + f(3,2)
             + f(4,2)  = 2
 c7_0_0:     - x57 >= 0
 c7_0_1:     5 X(0,1,0,4) + 7 X(0,1,1,3) - f(0,1) >= 0
 c7_0_2:     5 X(0,2,0,4) + 7 X(0,2,1,3) - f(0,2) >= 0
 c7_1_0:     5 X(1,0,0,4) + 7 X(1,0,1,3) - f(1,0) >= 0
 c7_1_1:     - x58 >= 0
 c7_1_2:     5 X(1,2,0,4) + 7 X(1,2,1,3) - f(1,2) >= 0
 c7_2_0:     5 X(2,0,0,4) + 7 X(2,0,1,3) - f(2,0) >= 0
 c7_2_1:     5 X(2,1,0,4) + 7 X(2,1,1,3) - f(2,1) >= 0
 c7_2_2:     - x59 >= 0
 c7_3_0:     5 X(3,0,0,4) + 7 X(3,0,1,3) - f(3,0) >= 0
 c7_3_1:     5 X(3,1,0,4) + 7 X(3,1,1,3) - f(3,1) >= 0
 c7_3_2:     5 X(3,2,0,4) + 7 X(3,2,1,3) - f(3,2) >= 0
 c7_4_0:     5 X(4,0,0,4) + 7 X(4,0,1,3) - f(4,0) >= 0
 c7_4_1:     5 X(4,1,0,4) + 7 X(4,1,1,3) - f(4,1) >= 0
 c7_4_2:     5 X(4,2,0,4) + 7 X(4,2,1,3) - f(4,2) >= 0
 c8_3_0_0_0:  = 0
 c8_3_0_0_1:  = 0
 c8_3_0_0_2:  = 0
 c8_3_0_0_4:  = 0
 c8_4_0_0_0:  = 0
 c8_4_0_0_1:  = 0
 c8_4_0_0_2:  = 0
 c8_4_0_0_3:  = 0
 c8_3_0_1_0:  = 0
 c8_3_0_1_1:  = 0
 c8_3_0_1_2:  = 0
 c8_3_0_1_4:  = 0
 c8_4_0_1_0:  = 0
 c8_4_0_1_1:  = 0
 c8_4_0_1_2:  = 0
 c8_4_0_1_3:  = 0
 c8_3_1_0_0:  = 0
 c8_3_1_0_1:  = 0
 c8_3_1_0_2:  = 0
 c8_3_1_0_4:  = 0
 c8_4_1_0_0:  = 0
 c8_4_1_0_1:  = 0
 c8_4_1_0_2:  = 0
 c8_4_1_0_3:  = 0
 c8_3_1_1_0:  = 0
 c8_3_1_1_1:  = 0
 c8_3_1_1_2:  = 0
 c8_3_1_1_4:  = 0
 c8_4_1_1_0:  = 0
 c8_4_1_1_1:  = 0
 c8_4_1_1_2:  = 0
 c8_4_1_1_3:  = 0
 c8_3_2_0_0:  = 0
 c8_3_2_0_1:  = 0
 c8_3_2_0_2:  = 0
 c8_3_2_0_4:  = 0
 c8_4_2_0_0:  = 0
 c8_4_2_0_1:  = 0
 c8_4_2_0_2:  = 0
 c8_4_2_0_3:  = 0
 c8_3_2_1_0:  = 0
 c8_3_2_1_1:  = 0
 c8_3_2_1_2:  = 0
 c8_3_2_1_4:  = 0
 c8_4_2_1_0:  = 0
 c8_4_2_1_1:  = 0
 c8_4_2_1_2:  = 0
 c8_4_2_1_3:  = 0
 c9_0_3_0_0:  = 0
 c9_0_3_0_1:  = 0
 c9_0_3_0_2:  = 0
 c9_0_3_0_4:  = 0
 c9_0_4_0_0:  = 0
 c9_0_4_0_1:  = 0
 c9_0_4_0_2:  = 0
 c9_0_4_0_3:  = 0
 c9_0_3_1_0:  = 0
 c9_0_3_1_1:  = 0
 c9_0_3_1_2:  = 0
 c9_0_3_1_4:  = 0
 c9_0_4_1_0:  = 0
 c9_0_4_1_1:  = 0
 c9_0_4_1_2:  = 0
 c9_0_4_1_3:  = 0
 c9_1_3_0_0:  = 0
 c9_1_3_0_1:  = 0
 c9_1_3_0_2:  = 0
 c9_1_3_0_4:  = 0
 c9_1_4_0_0:  = 0
 c9_1_4_0_1:  = 0
 c9_1_4_0_2:  = 0
 c9_1_4_0_3:  = 0
 c9_1_3_1_0:  = 0
 c9_1_3_1_1:  = 0
 c9_1_3_1_2:  = 0
 c9_1_3_1_4:  = 0
 c9_1_4_1_0:  = 0
 c9_1_4_1_1:  = 0
 c9_1_4_1_2:  = 0
 c9_1_4_1_3:  = 0
 c9_2_3_0_0:  = 0
 c9_2_3_0_1:  = 0
 c9_2_3_0_2:  = 0
 c9_2_3_0_4:  = 0
 c9_2_4_0_0:  = 0
 c9_2_4_0_1:  = 0
 c9_2_4_0_2:  = 0
 c9_2_4_0_3:  = 0
 c9_2_3_1_0:  = 0
 c9_2_3_1_1:  = 0
 c9_2_3_1_2:  = 0
 c9_2_3_1_4:  = 0
 c9_2_4_1_0:  = 0
 c9_2_4_1_1:  = 0
 c9_2_4_1_2:  = 0
 c9_2_4_1_3:  = 0
 c11_0_1:    f(0,1) >= 0
 c11_0_2:    f(0,2) >= 0
 c11_0_3:    f(0,3) >= 0
 c11_0_4:    f(0,4) >= 0
 c11_1_0:    f(1,0) >= 0
 c11_1_2:    f(1,2) >= 0
 c11_1_3:    f(1,3) >= 0
 c11_1_4:    f(1,4) >= 0
 c11_2_0:    f(2,0) >= 0
 c11_2_1:    f(2,1) >= 0
 c11_2_3:    f(2,3) >= 0
 c11_2_4:    f(2,4) >= 0
 c11_3_0:    f(3,0) >= 0
 c11_3_1:    f(3,1) >= 0
 c11_3_2:    f(3,2) >= 0
 c11_3_4:    f(3,4) >= 0
 c11_4_0:    f(4,0) >= 0
 c11_4_1:    f(4,1) >= 0
 c11_4_2:    f(4,2) >= 0
 c11_4_3:    f(4,3) >= 0
 c12_0_1:    3 X(0,1,0,4) + 5 X(0,1,1,3) - f(0,1) >= 0
 c12_0_2:    3 X(0,2,0,4) + 5 X(0,2,1,3) - f(0,2) >= 0
 c12_1_0:    2 X(1,0,0,4) + 4 X(1,0,1,3) - f(1,0) >= 0
 c12_1_2:    2 X(1,2,0,4) + 4 X(1,2,1,3) - f(1,2) >= 0
 c12_2_0:    3 X(2,0,0,4) + 5 X(2,0,1,3) - f(2,0) >= 0
 c12_2_1:    3 X(2,1,0,4) + 5 X(2,1,1,3) - f(2,1) >= 0
 c12_3_0:    5 X(3,0,0,4) + 7 X(3,0,1,3) - f(3,0) >= 0
 c12_3_1:    5 X(3,1,0,4) + 7 X(3,1,1,3) - f(3,1) >= 0
 c12_3_2:    5 X(3,2,0,4) + 7 X(3,2,1,3) - f(3,2) >= 0
 c12_4_0:    5 X(4,0,0,4) + 7 X(4,0,1,3) - f(4,0) >= 0
 c12_4_1:    5 X(4,1,0,4) + 7 X(4,1,1,3) - f(4,1) >= 0
 c12_4_2:    5 X(4,2,0,4) + 7 X(4,2,1,3) - f(4,2) >= 0
 c13_0_1:    3 X(0,1,0,4) + 3 X(0,1,1,3) - f(0,1) <= 0
 c13_0_2:    2 X(0,2,0,4) + 2 X(0,2,1,3) - f(0,2) <= 0
 c13_1_0:    2 X(1,0,0,4) + 2 X(1,0,1,3) - f(1,0) <= 0
 c13_1_2:    2 X(1,2,0,4) + 2 X(1,2,1,3) - f(1,2) <= 0
 c13_2_0:    2 X(2,0,0,4) + 2 X(2,0,1,3) - f(2,0) <= 0
 c13_2_1:    3 X(2,1,0,4) + 3 X(2,1,1,3) - f(2,1) <= 0
Bounds
 0 <= X(0,1,0,4) <= 1
 0 <= X(0,1,1,3) <= 1
 0 <= X(0,2,0,4) <= 1
 0 <= X(0,2,1,3) <= 1
 0 <= X(0,3,0,4) <= 1
 0 <= X(0,3,1,3) <= 1
 0 <= X(0,4,0,4) <= 1
 0 <= X(0,4,1,3) <= 1
 0 <= X(1,0,0,4) <= 1
 0 <= X(1,0,1,3) <= 1
 0 <= X(1,2,0,4) <= 1
 0 <= X(1,2,1,3) <= 1
 0 <= X(1,3,0,4) <= 1
 0 <= X(1,3,1,3) <= 1
 0 <= X(1,4,0,4) <= 1
 0 <= X(1,4,1,3) <= 1
 0 <= X(2,0,0,4) <= 1
 0 <= X(2,0,1,3) <= 1
 0 <= X(2,1,0,4) <= 1
 0 <= X(2,1,1,3) <= 1
 0 <= X(2,3,0,4) <= 1
 0 <= X(2,3,1,3) <= 1
 0 <= X(2,4,0,4) <= 1
 0 <= X(2,4,1,3) <= 1
 0 <= X(3,0,0,4) <= 1
 0 <= X(3,0,1,3) <= 1
 0 <= X(3,1,0,4) <= 1
 0 <= X(3,1,1,3) <= 1
 0 <= X(3,2,0,4) <= 1
 0 <= X(3,2,1,3) <= 1
 0 <= X(4,0,0,4) <= 1
 0 <= X(4,0,1,3) <= 1
 0 <= X(4,1,0,4) <= 1
 0 <= X(4,1,1,3) <= 1
 0 <= X(4,2,0,4) <= 1
 0 <= X(4,2,1,3) <= 1
 0 <= f(0,1) <= 7
 0 <= f(0,2) <= 7
 0 <= f(0,3) <= 7
 0 <= f(0,4) <= 7
 0 <= f(1,0) <= 7
 0 <= f(1,2) <= 7
 0 <= f(1,3) <= 7
 0 <= f(1,4) <= 7
 0 <= f(2,0) <= 7
 0 <= f(2,1) <= 7
 0 <= f(2,3) <= 7
 0 <= f(2,4) <= 7
 0 <= f(3,0) <= 7
 0 <= f(3,1) <= 7
 0 <= f(3,2) <= 7
 0 <= f(3,4) <= 7
 0 <= f(4,0) <= 7
 0 <= f(4,1) <= 7
 0 <= f(4,2) <= 7
 0 <= f(4,3) <= 7
 0 <= x57 <= 7
 0 <= x58 <= 7
 0 <= x59 <= 7
Binaries
 X(0,1,0,4)  X(0,1,1,3)  X(0,2,0,4)  X(0,2,1,3)  X(0,3,0,4)  X(0,3,1,3) 
 X(0,4,0,4)  X(0,4,1,3)  X(1,0,0,4)  X(1,0,1,3)  X(1,2,0,4)  X(1,2,1,3) 
 X(1,3,0,4)  X(1,3,1,3)  X(1,4,0,4)  X(1,4,1,3)  X(2,0,0,4)  X(2,0,1,3) 
 X(2,1,0,4)  X(2,1,1,3)  X(2,3,0,4)  X(2,3,1,3)  X(2,4,0,4)  X(2,4,1,3) 
 X(3,0,0,4)  X(3,0,1,3)  X(3,1,0,4)  X(3,1,1,3)  X(3,2,0,4)  X(3,2,1,3) 
 X(4,0,0,4)  X(4,0,1,3)  X(4,1,0,4)  X(4,1,1,3)  X(4,2,0,4)  X(4,2,1,3) 
End
